NAME          
ROWS
 N  OBJ
 L  c1
 L  c2
COLUMNS
    MARKER    'MARKER'                 'INTORG'
    x[1]      c1        34
    x[1]      c2        171
    x[1]      OBJ       -417
    x[2]      c1        239
    x[2]      c2        722
    x[2]      OBJ       -920
    x[3]      c1        984
    x[3]      c2        96
    x[3]      OBJ       -776
    x[4]      c1        496
    x[4]      c2        899
    x[4]      OBJ       -474
    x[5]      c1        453
    x[5]      c2        952
    x[5]      OBJ       -498
    x[6]      c1        769
    x[6]      c2        711
    x[6]      OBJ       -853
    x[7]      c1        575
    x[7]      c2        442
    x[7]      OBJ       -969
    x[8]      c1        305
    x[8]      c2        749
    x[8]      OBJ       -537
    x[9]      c1        960
    x[9]      c2        832
    x[9]      OBJ       -607
    x[10]     c1        808
    x[10]     c2        180
    x[10]     OBJ       -264
    x[11]     c1        22
    x[11]     c2        91
    x[11]     OBJ       -402
    x[12]     c1        36
    x[12]     c2        538
    x[12]     OBJ       -290
    x[13]     c1        789
    x[13]     c2        724
    x[13]     OBJ       -185
    x[14]     c1        638
    x[14]     c2        524
    x[14]     OBJ       -885
    x[15]     c1        918
    x[15]     c2        838
    x[15]     OBJ       -750
    x[16]     c1        234
    x[16]     c2        59
    x[16]     OBJ       -407
    x[17]     c1        290
    x[17]     c2        968
    x[17]     OBJ       -736
    x[18]     c1        855
    x[18]     c2        688
    x[18]     OBJ       -74
    x[19]     c1        428
    x[19]     c2        324
    x[19]     OBJ       -793
    x[20]     c1        887
    x[20]     c2        687
    x[20]     OBJ       -261
    x[21]     c1        234
    x[21]     c2        337
    x[21]     OBJ       -70
    x[22]     c1        204
    x[22]     c2        497
    x[22]     OBJ       -90
    x[23]     c1        739
    x[23]     c2        571
    x[23]     OBJ       -925
    x[24]     c1        41
    x[24]     c2        487
    x[24]     OBJ       -236
    x[25]     c1        391
    x[25]     c2        922
    x[25]     OBJ       -301
    x[26]     c1        326
    x[26]     c2        988
    x[26]     OBJ       -177
    x[27]     c1        673
    x[27]     c2        177
    x[27]     OBJ       -624
    x[28]     c1        523
    x[28]     c2        421
    x[28]     OBJ       -397
    x[29]     c1        472
    x[29]     c2        578
    x[29]     OBJ       -395
    x[30]     c1        441
    x[30]     c2        609
    x[30]     OBJ       -496
RHS
    rhs       c1        7382
    rhs       c2        8391
RANGES
BOUNDS
 BV bounds    x[1]
 BV bounds    x[2]
 BV bounds    x[3]
 BV bounds    x[4]
 BV bounds    x[5]
 BV bounds    x[6]
 BV bounds    x[7]
 BV bounds    x[8]
 BV bounds    x[9]
 BV bounds    x[10]
 BV bounds    x[11]
 BV bounds    x[12]
 BV bounds    x[13]
 BV bounds    x[14]
 BV bounds    x[15]
 BV bounds    x[16]
 BV bounds    x[17]
 BV bounds    x[18]
 BV bounds    x[19]
 BV bounds    x[20]
 BV bounds    x[21]
 BV bounds    x[22]
 BV bounds    x[23]
 BV bounds    x[24]
 BV bounds    x[25]
 BV bounds    x[26]
 BV bounds    x[27]
 BV bounds    x[28]
 BV bounds    x[29]
 BV bounds    x[30]
ENDATA
